ignore
ignore
ignore
ignore
0 0 10 10 10 10 37 38 39 40 2 33 5 46 41 32 29 
24 48 10 10 10 10 3 
24 48 10 10 10 10 4 
60 120 10 10 10 10 10 
40 80 10 10 10 10 8 6 
12 24 10 10 10 10 7 
12 24 10 10 10 10 9 
36 72 10 10 10 10 9 
24 48 10 10 10 10 10 
60 120 10 10 10 10 11 27 15 
24 48 10 10 10 10 36 12 13 14 
24 48 10 10 10 10 36 15 
20 40 10 10 10 10 36 15 
12 24 10 10 10 10 36 15 
12 24 10 10 10 10 16 
12 24 10 10 10 10 17 
16 32 10 10 10 10 18 36 
16 32 10 10 10 10 19 24 23 22 36 
20 40 10 10 10 10 20 36 
12 24 10 10 10 10 21 
12 24 10 10 10 10 25 
24 48 10 10 10 10 25 
20 40 10 10 10 10 25 
12 24 10 10 10 10 25 
24 48 10 10 10 10 27 26 
16 32 10 10 10 10 27 
56 112 10 10 10 10 28 
12 24 10 10 10 10 36 
28 56 10 10 10 10 30 
12 24 10 10 10 10 31 
12 24 10 10 10 10 34 
24 48 10 10 10 10 34 
24 48 10 10 10 10 34 
16 32 10 10 10 10 35 
24 48 10 10 10 10 50 49 
12 24 10 10 10 10 87 86 65 66 
24 48 10 10 10 10 42 
24 48 10 10 10 10 42 
24 48 10 10 10 10 42 
24 48 10 10 10 10 42 
24 48 10 10 10 10 42 
12 24 10 10 10 10 43 
8 16 10 10 10 10 88 89 44 
12 24 10 10 10 10 45 
24 48 10 10 10 10 47 48 54 53 55 50 49 52 51 64 63 71 69 70 67 68 65 66 87 86 85 84 92 91 90 
12 24 10 10 10 10 54 53 56 55 50 49 52 51 47 48 57 
24 48 10 10 10 10 57 
24 48 10 10 10 10 57 
16 32 10 10 10 10 53 52 51 57 
16 32 10 10 10 10 57 
16 32 10 10 10 10 57 
16 32 10 10 10 10 57 
16 32 10 10 10 10 57 
16 32 10 10 10 10 57 
16 32 10 10 10 10 57 
16 32 10 10 10 10 57 
16 32 10 10 10 10 62 61 58 73 60 59 
12 24 10 10 10 10 71 72 69 70 67 68 65 66 64 63 
12 24 10 10 10 10 71 72 69 70 67 68 65 66 64 63 
12 24 10 10 10 10 71 72 69 70 67 68 65 66 64 63 
12 24 10 10 10 10 71 72 69 70 67 68 65 66 64 63 
12 24 10 10 10 10 71 72 69 70 67 68 65 66 64 63 
12 24 10 10 10 10 74 
12 24 10 10 10 10 74 
4 8 10 10 10 10 67 68 75 74 
4 8 10 10 10 10 69 74 
8 16 10 10 10 10 74 
8 16 10 10 10 10 74 
8 16 10 10 10 10 74 
4 8 10 10 10 10 74 
4 8 10 10 10 10 74 
4 8 10 10 10 10 74 
8 12 10 10 10 10 74 
12 24 10 10 10 10 77 78 75 
12 24 10 10 10 10 76 
12 24 10 10 10 10 96 77 
24 48 10 10 10 10 83 82 81 79 80 
20 40 10 10 10 10 79 80 86 85 84 83 82 81 96 95 94 93 92 91 
12 24 10 10 10 10 84 
12 24 10 10 10 10 92 
12 24 10 10 10 10 91 
12 24 10 10 10 10 91 
12 24 10 10 10 10 88 93 89 
12 24 10 10 10 10 97 
12 24 10 10 10 10 97 
12 24 10 10 10 10 88 
12 24 10 10 10 10 90 
12 24 10 10 10 10 97 
12 24 10 10 10 10 97 
12 24 10 10 10 10 97 
12 24 10 10 10 10 97 
12 24 10 10 10 10 97 
12 24 10 10 10 10 97 
12 24 10 10 10 10 97 
12 24 10 10 10 10 97 
12 24 10 10 10 10 97 
12 24 10 10 10 10 98 
1 13 10 10 10 10 99 
0 0 10 10 10 10 
